c FILE /home/rafael/Documents/HappySet/MIHS/inputs/happygen/output/graph_scale_free_k10_p0.2_v100_20241127_083911.txt
c SOURCE This is a scale-free graph formed for the happy graph colouring problem.
c DESCRIPTION It was generated using the problem generator of Rhyd Lewis
c
c GRAPH STATS
c Seed                             = 1921312972
c Number of Nodes                  = 100
c Number of colours k              = 10
c Number of pre-assignments        = 20
c Number of links per new node     = 5
c Density                          = 0.0979798
c 
c The degrees of nodes 1 to 100, respectively, are as follows 
c [38, 34, 34, 34, 27, 26, 25, 25, 21, 18, 18, 17, 16, 16, 16, 15, 13, 13, 12, 12, 12, 12, 12, 11, 11, 11, 
c  11, 10, 10, 10, 10, 10, 9, 9, 8, 8, 8, 8, 8, 8, 7, 7, 7, 7, 7, 7, 7, 7, 7, 7, 7, 
c  7, 7, 6, 6, 6, 6, 6, 6, 6, 6, 6, 6, 6, 6, 6, 6, 6, 6, 6, 6, 5, 5, 5, 5, 5, 
c  5, 5, 5, 5, 5, 5, 5, 5, 5, 5, 5, 5, 5, 5, 5, 5, 5, 5, 5, 5, 5, 5, 5, 5] 
c  
p edge 100 485 10
e 1 2
e 1 3
e 1 4
e 1 5
e 1 6
e 1 7
e 1 9
e 1 10
e 1 14
e 1 15
e 1 16
e 1 19
e 1 24
e 1 26
e 1 27
e 1 28
e 1 29
e 1 39
e 1 40
e 1 41
e 1 42
e 1 45
e 1 47
e 1 49
e 1 52
e 1 54
e 1 55
e 1 61
e 1 65
e 1 73
e 1 75
e 1 77
e 1 79
e 1 81
e 1 85
e 1 86
e 1 87
e 1 96
e 2 3
e 2 4
e 2 5
e 2 6
e 2 7
e 2 8
e 2 9
e 2 10
e 2 11
e 2 13
e 2 14
e 2 16
e 2 17
e 2 18
e 2 20
e 2 24
e 2 25
e 2 26
e 2 29
e 2 31
e 2 34
e 2 35
e 2 38
e 2 41
e 2 42
e 2 48
e 2 50
e 2 58
e 2 73
e 2 84
e 2 89
e 2 94
e 2 99
e 3 4
e 3 6
e 3 8
e 3 9
e 3 10
e 3 13
e 3 16
e 3 17
e 3 18
e 3 19
e 3 26
e 3 28
e 3 30
e 3 33
e 3 36
e 3 37
e 3 44
e 3 47
e 3 52
e 3 54
e 3 55
e 3 56
e 3 57
e 3 58
e 3 62
e 3 63
e 3 69
e 3 76
e 3 82
e 3 94
e 3 99
e 3 100
e 4 5
e 4 6
e 4 7
e 4 9
e 4 11
e 4 16
e 4 17
e 4 18
e 4 21
e 4 22
e 4 23
e 4 28
e 4 29
e 4 31
e 4 32
e 4 40
e 4 42
e 4 54
e 4 55
e 4 59
e 4 61
e 4 63
e 4 69
e 4 71
e 4 81
e 4 86
e 4 88
e 4 89
e 4 90
e 4 94
e 4 99
e 5 6
e 5 7
e 5 9
e 5 11
e 5 15
e 5 16
e 5 20
e 5 26
e 5 28
e 5 30
e 5 34
e 5 35
e 5 37
e 5 38
e 5 39
e 5 49
e 5 51
e 5 60
e 5 65
e 5 76
e 5 78
e 5 79
e 5 90
e 5 100
e 6 7
e 6 8
e 6 9
e 6 10
e 6 12
e 6 13
e 6 14
e 6 15
e 6 25
e 6 31
e 6 36
e 6 40
e 6 41
e 6 43
e 6 64
e 6 66
e 6 67
e 6 72
e 6 73
e 6 83
e 6 88
e 7 12
e 7 13
e 7 17
e 7 24
e 7 27
e 7 29
e 7 31
e 7 37
e 7 42
e 7 44
e 7 46
e 7 50
e 7 55
e 7 56
e 7 58
e 7 63
e 7 76
e 7 79
e 7 83
e 7 98
e 8 11
e 8 12
e 8 13
e 8 18
e 8 19
e 8 21
e 8 22
e 8 23
e 8 24
e 8 32
e 8 43
e 8 45
e 8 46
e 8 54
e 8 62
e 8 63
e 8 64
e 8 67
e 8 70
e 8 77
e 8 88
e 8 91
e 9 10
e 9 11
e 9 24
e 9 26
e 9 27
e 9 28
e 9 30
e 9 43
e 9 45
e 9 57
e 9 62
e 9 63
e 9 71
e 9 73
e 9 75
e 10 11
e 10 19
e 10 20
e 10 21
e 10 29
e 10 33
e 10 35
e 10 36
e 10 51
e 10 60
e 10 68
e 10 72
e 10 95
e 11 17
e 11 18
e 11 24
e 11 25
e 11 30
e 11 31
e 11 59
e 11 66
e 11 68
e 11 76
e 11 77
e 11 82
e 12 15
e 12 24
e 12 25
e 12 28
e 12 32
e 12 46
e 12 49
e 12 57
e 12 58
e 12 68
e 12 79
e 12 81
e 12 85
e 12 89
e 13 14
e 13 38
e 13 39
e 13 45
e 13 53
e 13 73
e 13 74
e 13 91
e 13 95
e 13 98
e 13 99
e 14 17
e 14 23
e 14 33
e 14 34
e 14 39
e 14 43
e 14 44
e 14 50
e 14 57
e 14 86
e 14 89
e 14 97
e 15 17
e 15 20
e 15 33
e 15 41
e 15 46
e 15 64
e 15 70
e 15 71
e 15 78
e 15 86
e 15 88
e 15 98
e 16 20
e 16 35
e 16 36
e 16 39
e 16 49
e 16 55
e 16 65
e 16 72
e 16 79
e 16 89
e 17 19
e 17 37
e 17 44
e 17 81
e 17 91
e 17 93
e 18 27
e 18 30
e 18 59
e 18 67
e 18 71
e 18 74
e 18 84
e 18 100
e 19 32
e 19 34
e 19 40
e 19 46
e 19 56
e 19 76
e 19 98
e 20 48
e 20 50
e 20 57
e 20 74
e 20 77
e 20 90
e 20 96
e 21 22
e 21 29
e 21 32
e 21 33
e 21 47
e 21 61
e 21 65
e 21 66
e 21 80
e 22 32
e 22 42
e 22 50
e 22 51
e 22 53
e 22 64
e 22 66
e 22 69
e 22 87
e 23 24
e 23 38
e 23 51
e 23 70
e 23 80
e 23 84
e 23 87
e 23 90
e 23 91
e 24 42
e 24 61
e 24 88
e 25 30
e 25 41
e 25 48
e 25 54
e 25 61
e 25 82
e 25 97
e 26 38
e 26 44
e 26 56
e 26 60
e 26 67
e 26 93
e 27 31
e 27 37
e 27 53
e 27 62
e 27 83
e 27 84
e 27 86
e 28 56
e 28 60
e 28 62
e 28 85
e 29 32
e 29 68
e 29 77
e 29 96
e 30 35
e 30 53
e 30 92
e 30 93
e 31 45
e 31 58
e 31 75
e 31 82
e 32 43
e 32 69
e 32 94
e 33 52
e 33 64
e 33 75
e 33 83
e 34 40
e 34 64
e 34 83
e 34 85
e 34 97
e 35 38
e 35 74
e 35 90
e 36 48
e 36 58
e 36 70
e 36 94
e 37 51
e 37 59
e 37 75
e 38 60
e 38 78
e 39 47
e 39 48
e 39 82
e 40 71
e 40 87
e 40 92
e 41 93
e 41 97
e 42 100
e 43 72
e 43 78
e 44 72
e 44 96
e 45 85
e 45 100
e 46 47
e 46 52
e 47 74
e 47 98
e 48 49
e 48 80
e 49 65
e 49 92
e 50 52
e 50 81
e 51 66
e 51 93
e 52 80
e 52 95
e 53 69
e 53 91
e 53 96
e 54 59
e 55 80
e 56 68
e 57 70
e 59 92
e 60 97
e 61 84
e 62 92
e 63 67
e 65 78
e 66 95
e 67 69
e 68 99
e 70 95
e 71 87
n 16 7
n 19 9
n 21 4
n 30 6
n 37 1
n 42 8
n 43 2
n 47 4
n 48 7
n 50 1
n 51 1
n 60 1
n 64 5
n 73 6
n 83 10
n 85 10
n 88 9
n 90 3
n 91 4
n 92 6
